clingo version 5.5.2
Reading from ...nt/beegfs/home/jubruns/encoding/mif.lp ...
Solving...
Answer: 1
move(1,(25,4),(25,3),1) move(1,(25,3),(25,2),2) move(2,(10,23),(9,23),1) move(2,(9,23),(8,23),2) move(2,(8,23),(8,24),3) move(2,(8,24),(8,25),4) move(2,(8,25),(9,25),5) move(2,(9,25),(10,25),6) move(3,(18,13),(17,13),1) move(3,(17,13),(16,13),2) move(3,(16,13),(15,13),3) move(3,(15,13),(14,13),4) move(3,(14,13),(14,14),5) move(3,(14,14),(13,14),6) move(3,(13,14),(13,15),7) move(3,(13,15),(12,15),8)
SATISFIABLE

Models       : 1+
Calls        : 1
Time         : 0.310s (Solving: 0.01s 1st Model: 0.01s Unsat: 0.00s)
CPU Time     : 0.281s

Choices      : 27       (Domain: 10)
Conflicts    : 3        (Analyzed: 3)
Restarts     : 0       
Model-Level  : 14.0    
Problems     : 1        (Average Length: 0.00 Splits: 0)
Lemmas       : 3        (Deleted: 0)
  Binary     : 0        (Ratio:   0.00%)
  Ternary    : 0        (Ratio:   0.00%)
  Conflict   : 3        (Average Length:    8.0 Ratio: 100.00%) 
  Loop       : 0        (Average Length:    0.0 Ratio:   0.00%) 
  Other      : 0        (Average Length:    0.0 Ratio:   0.00%) 
Backjumps    : 3        (Average:  4.33 Max:   8 Sum:     13)
  Executed   : 3        (Average:  4.33 Max:   8 Sum:     13 Ratio: 100.00%)
  Bounded    : 0        (Average:  0.00 Max:   0 Sum:      0 Ratio:   0.00%)

Rules        : 107273   (Original: 81192)
  Choice     : 24      
  Heuristic  : 543      (Original: 554)
Atoms        : 62687    (Original: 49927 Auxiliary: 12760)
Disjunctions : 0        (Original: 1)
Bodies       : 56443    (Original: 43135)
  Count      : 20       (Original: 72)
Equivalences : 36151    (Atom=Atom: 31 Body=Body: 37 Other: 36083)
Tight        : Yes
Variables    : 62114    (Eliminated:    0 Frozen: 28044)
Constraints  : 127506   (Binary:  84.8% Ternary:   6.9% Other:   8.3%)

